(set-info :smt-lib-version 2.6)
(set-logic QF_NIA)
(set-info :source |
 more info in 'N. P. Lopes, L. Aksoy, V. Manquinho, J. Monteiro.
 Optimally Solving the MCM Problem Using Pseudo-Boolean Satisfiability.
 Technical Report RT/43/2010, INESC-ID, Nov. 2010'. |)
(set-info :category "industrial")
(set-info :status unknown)
(declare-fun X7 () Int)
(declare-fun X8 () Int)
(declare-fun X9 () Int)
(declare-fun X10 () Int)
(declare-fun S0 () Int)
(declare-fun S1 () Int)
(declare-fun S2 () Int)
(declare-fun S3 () Int)
(declare-fun S4 () Int)
(declare-fun S5 () Int)
(declare-fun S6 () Int)
(declare-fun S7 () Int)
(define-fun power2 ((x Int)) Bool
  (or (= x 1024) (= x 512) (= x 256) (= x 128) (= x 64) (= x 32) (= x 16) (= x 8) (= x 4) (= x 2) (= x 1)))
(assert (or
 (= X7 (+ S0 S1))
 (= X7 (- S0 S1))
 (= X7 (+ (* 15 S0) S1))
 (= X7 (- (* 15 S0) S1))
 (= X7 (- S0 (* 15 S1)))
 (= X7 (+ (* 15 S0) (* 15 S1)))
 (= X7 (- (* 15 S0) (* 15 S1)))
 (= X7 (+ (* 15 S0) (* 33 S1)))
 (= X7 (- (* 15 S0) (* 33 S1)))
 (= X7 (- (* 33 S0) (* 15 S1)))
 (= X7 (+ (* 15 S0) (* 95 S1)))
 (= X7 (- (* 15 S0) (* 95 S1)))
 (= X7 (- (* 95 S0) (* 15 S1)))
 (= X7 (+ (* 15 S0) (* 37 S1)))
 (= X7 (- (* 15 S0) (* 37 S1)))
 (= X7 (- (* 37 S0) (* 15 S1)))
 (= X7 (+ (* 15 S0) (* 293 S1)))
 (= X7 (- (* 15 S0) (* 293 S1)))
 (= X7 (- (* 293 S0) (* 15 S1)))
 (= X7 (+ (* 15 S0) (* 495 S1)))
 (= X7 (- (* 15 S0) (* 495 S1)))
 (= X7 (- (* 495 S0) (* 15 S1)))
 (= X7 (+ (* 15 S0) (* 953 S1)))
 (= X7 (- (* 15 S0) (* 953 S1)))
 (= X7 (- (* 953 S0) (* 15 S1)))
 (= X7 (+ (* 33 S0) S1))
 (= X7 (- (* 33 S0) S1))
 (= X7 (- S0 (* 33 S1)))
 (= X7 (+ (* 33 S0) (* 33 S1)))
 (= X7 (- (* 33 S0) (* 33 S1)))
 (= X7 (+ (* 33 S0) (* 95 S1)))
 (= X7 (- (* 33 S0) (* 95 S1)))
 (= X7 (- (* 95 S0) (* 33 S1)))
 (= X7 (+ (* 33 S0) (* 37 S1)))
 (= X7 (- (* 33 S0) (* 37 S1)))
 (= X7 (- (* 37 S0) (* 33 S1)))
 (= X7 (+ (* 33 S0) (* 293 S1)))
 (= X7 (- (* 33 S0) (* 293 S1)))
 (= X7 (- (* 293 S0) (* 33 S1)))
 (= X7 (+ (* 33 S0) (* 495 S1)))
 (= X7 (- (* 33 S0) (* 495 S1)))
 (= X7 (- (* 495 S0) (* 33 S1)))
 (= X7 (+ (* 33 S0) (* 953 S1)))
 (= X7 (- (* 33 S0) (* 953 S1)))
 (= X7 (- (* 953 S0) (* 33 S1)))
 (= X7 (+ (* 95 S0) S1))
 (= X7 (- (* 95 S0) S1))
 (= X7 (- S0 (* 95 S1)))
 (= X7 (+ (* 95 S0) (* 95 S1)))
 (= X7 (- (* 95 S0) (* 95 S1)))
 (= X7 (+ (* 95 S0) (* 37 S1)))
 (= X7 (- (* 95 S0) (* 37 S1)))
 (= X7 (- (* 37 S0) (* 95 S1)))
 (= X7 (+ (* 95 S0) (* 293 S1)))
 (= X7 (- (* 95 S0) (* 293 S1)))
 (= X7 (- (* 293 S0) (* 95 S1)))
 (= X7 (+ (* 95 S0) (* 495 S1)))
 (= X7 (- (* 95 S0) (* 495 S1)))
 (= X7 (- (* 495 S0) (* 95 S1)))
 (= X7 (+ (* 95 S0) (* 953 S1)))
 (= X7 (- (* 95 S0) (* 953 S1)))
 (= X7 (- (* 953 S0) (* 95 S1)))
 (= X7 (+ (* 37 S0) S1))
 (= X7 (- (* 37 S0) S1))
 (= X7 (- S0 (* 37 S1)))
 (= X7 (+ (* 37 S0) (* 37 S1)))
 (= X7 (- (* 37 S0) (* 37 S1)))
 (= X7 (+ (* 37 S0) (* 293 S1)))
 (= X7 (- (* 37 S0) (* 293 S1)))
 (= X7 (- (* 293 S0) (* 37 S1)))
 (= X7 (+ (* 37 S0) (* 495 S1)))
 (= X7 (- (* 37 S0) (* 495 S1)))
 (= X7 (- (* 495 S0) (* 37 S1)))
 (= X7 (+ (* 37 S0) (* 953 S1)))
 (= X7 (- (* 37 S0) (* 953 S1)))
 (= X7 (- (* 953 S0) (* 37 S1)))
 (= X7 (+ (* 293 S0) S1))
 (= X7 (- (* 293 S0) S1))
 (= X7 (- S0 (* 293 S1)))
 (= X7 (+ (* 293 S0) (* 293 S1)))
 (= X7 (- (* 293 S0) (* 293 S1)))
 (= X7 (+ (* 293 S0) (* 495 S1)))
 (= X7 (- (* 293 S0) (* 495 S1)))
 (= X7 (- (* 495 S0) (* 293 S1)))
 (= X7 (+ (* 293 S0) (* 953 S1)))
 (= X7 (- (* 293 S0) (* 953 S1)))
 (= X7 (- (* 953 S0) (* 293 S1)))
 (= X7 (+ (* 495 S0) S1))
 (= X7 (- (* 495 S0) S1))
 (= X7 (- S0 (* 495 S1)))
 (= X7 (+ (* 495 S0) (* 495 S1)))
 (= X7 (- (* 495 S0) (* 495 S1)))
 (= X7 (+ (* 495 S0) (* 953 S1)))
 (= X7 (- (* 495 S0) (* 953 S1)))
 (= X7 (- (* 953 S0) (* 495 S1)))
 (= X7 (+ (* 953 S0) S1))
 (= X7 (- (* 953 S0) S1))
 (= X7 (- S0 (* 953 S1)))
 (= X7 (+ (* 953 S0) (* 953 S1)))
 (= X7 (- (* 953 S0) (* 953 S1)))
))
(assert (and (> X7 0) (< X7 2048) (power2 S0) (power2 S1)))
(assert (or
 (= X8 (+ (* 15 S2) S3))
 (= X8 (- (* 15 S2) S3))
 (= X8 (- S2 (* 15 S3)))
 (= X8 (+ (* 15 S2) (* 15 S3)))
 (= X8 (- (* 15 S2) (* 15 S3)))
 (= X8 (+ (* 15 S2) (* 33 S3)))
 (= X8 (- (* 15 S2) (* 33 S3)))
 (= X8 (- (* 33 S2) (* 15 S3)))
 (= X8 (+ (* 15 S2) (* 95 S3)))
 (= X8 (- (* 15 S2) (* 95 S3)))
 (= X8 (- (* 95 S2) (* 15 S3)))
 (= X8 (+ (* 15 S2) (* 37 S3)))
 (= X8 (- (* 15 S2) (* 37 S3)))
 (= X8 (- (* 37 S2) (* 15 S3)))
 (= X8 (+ (* 15 S2) (* 293 S3)))
 (= X8 (- (* 15 S2) (* 293 S3)))
 (= X8 (- (* 293 S2) (* 15 S3)))
 (= X8 (+ (* 15 S2) (* 495 S3)))
 (= X8 (- (* 15 S2) (* 495 S3)))
 (= X8 (- (* 495 S2) (* 15 S3)))
 (= X8 (+ (* 15 S2) (* 953 S3)))
 (= X8 (- (* 15 S2) (* 953 S3)))
 (= X8 (- (* 953 S2) (* 15 S3)))
 (= X8 (+ (* 15 S2) (* X7 S3)))
 (= X8 (- (* 15 S2) (* X7 S3)))
 (= X8 (- (* X7 S2) (* 15 S3)))
 (= X8 (+ (* 33 S2) S3))
 (= X8 (- (* 33 S2) S3))
 (= X8 (- S2 (* 33 S3)))
 (= X8 (+ (* 33 S2) (* 33 S3)))
 (= X8 (- (* 33 S2) (* 33 S3)))
 (= X8 (+ (* 33 S2) (* 95 S3)))
 (= X8 (- (* 33 S2) (* 95 S3)))
 (= X8 (- (* 95 S2) (* 33 S3)))
 (= X8 (+ (* 33 S2) (* 37 S3)))
 (= X8 (- (* 33 S2) (* 37 S3)))
 (= X8 (- (* 37 S2) (* 33 S3)))
 (= X8 (+ (* 33 S2) (* 293 S3)))
 (= X8 (- (* 33 S2) (* 293 S3)))
 (= X8 (- (* 293 S2) (* 33 S3)))
 (= X8 (+ (* 33 S2) (* 495 S3)))
 (= X8 (- (* 33 S2) (* 495 S3)))
 (= X8 (- (* 495 S2) (* 33 S3)))
 (= X8 (+ (* 33 S2) (* 953 S3)))
 (= X8 (- (* 33 S2) (* 953 S3)))
 (= X8 (- (* 953 S2) (* 33 S3)))
 (= X8 (+ (* 33 S2) (* X7 S3)))
 (= X8 (- (* 33 S2) (* X7 S3)))
 (= X8 (- (* X7 S2) (* 33 S3)))
 (= X8 (+ (* 95 S2) S3))
 (= X8 (- (* 95 S2) S3))
 (= X8 (- S2 (* 95 S3)))
 (= X8 (+ (* 95 S2) (* 95 S3)))
 (= X8 (- (* 95 S2) (* 95 S3)))
 (= X8 (+ (* 95 S2) (* 37 S3)))
 (= X8 (- (* 95 S2) (* 37 S3)))
 (= X8 (- (* 37 S2) (* 95 S3)))
 (= X8 (+ (* 95 S2) (* 293 S3)))
 (= X8 (- (* 95 S2) (* 293 S3)))
 (= X8 (- (* 293 S2) (* 95 S3)))
 (= X8 (+ (* 95 S2) (* 495 S3)))
 (= X8 (- (* 95 S2) (* 495 S3)))
 (= X8 (- (* 495 S2) (* 95 S3)))
 (= X8 (+ (* 95 S2) (* 953 S3)))
 (= X8 (- (* 95 S2) (* 953 S3)))
 (= X8 (- (* 953 S2) (* 95 S3)))
 (= X8 (+ (* 95 S2) (* X7 S3)))
 (= X8 (- (* 95 S2) (* X7 S3)))
 (= X8 (- (* X7 S2) (* 95 S3)))
 (= X8 (+ (* 37 S2) S3))
 (= X8 (- (* 37 S2) S3))
 (= X8 (- S2 (* 37 S3)))
 (= X8 (+ (* 37 S2) (* 37 S3)))
 (= X8 (- (* 37 S2) (* 37 S3)))
 (= X8 (+ (* 37 S2) (* 293 S3)))
 (= X8 (- (* 37 S2) (* 293 S3)))
 (= X8 (- (* 293 S2) (* 37 S3)))
 (= X8 (+ (* 37 S2) (* 495 S3)))
 (= X8 (- (* 37 S2) (* 495 S3)))
 (= X8 (- (* 495 S2) (* 37 S3)))
 (= X8 (+ (* 37 S2) (* 953 S3)))
 (= X8 (- (* 37 S2) (* 953 S3)))
 (= X8 (- (* 953 S2) (* 37 S3)))
 (= X8 (+ (* 37 S2) (* X7 S3)))
 (= X8 (- (* 37 S2) (* X7 S3)))
 (= X8 (- (* X7 S2) (* 37 S3)))
 (= X8 (+ (* 293 S2) S3))
 (= X8 (- (* 293 S2) S3))
 (= X8 (- S2 (* 293 S3)))
 (= X8 (+ (* 293 S2) (* 293 S3)))
 (= X8 (- (* 293 S2) (* 293 S3)))
 (= X8 (+ (* 293 S2) (* 495 S3)))
 (= X8 (- (* 293 S2) (* 495 S3)))
 (= X8 (- (* 495 S2) (* 293 S3)))
 (= X8 (+ (* 293 S2) (* 953 S3)))
 (= X8 (- (* 293 S2) (* 953 S3)))
 (= X8 (- (* 953 S2) (* 293 S3)))
 (= X8 (+ (* 293 S2) (* X7 S3)))
 (= X8 (- (* 293 S2) (* X7 S3)))
 (= X8 (- (* X7 S2) (* 293 S3)))
 (= X8 (+ (* 495 S2) S3))
 (= X8 (- (* 495 S2) S3))
 (= X8 (- S2 (* 495 S3)))
 (= X8 (+ (* 495 S2) (* 495 S3)))
 (= X8 (- (* 495 S2) (* 495 S3)))
 (= X8 (+ (* 495 S2) (* 953 S3)))
 (= X8 (- (* 495 S2) (* 953 S3)))
 (= X8 (- (* 953 S2) (* 495 S3)))
 (= X8 (+ (* 495 S2) (* X7 S3)))
 (= X8 (- (* 495 S2) (* X7 S3)))
 (= X8 (- (* X7 S2) (* 495 S3)))
 (= X8 (+ (* 953 S2) S3))
 (= X8 (- (* 953 S2) S3))
 (= X8 (- S2 (* 953 S3)))
 (= X8 (+ (* 953 S2) (* 953 S3)))
 (= X8 (- (* 953 S2) (* 953 S3)))
 (= X8 (+ (* 953 S2) (* X7 S3)))
 (= X8 (- (* 953 S2) (* X7 S3)))
 (= X8 (- (* X7 S2) (* 953 S3)))
 (= X8 (+ (* X7 S2) S3))
 (= X8 (- (* X7 S2) S3))
 (= X8 (- S2 (* X7 S3)))
 (= X8 (+ (* X7 S2) (* X7 S3)))
 (= X8 (- (* X7 S2) (* X7 S3)))
))
(assert (and (> X8 0) (< X8 2048) (power2 S2) (power2 S3)))
(assert (or
 (= X9 (+ (* 15 S4) S5))
 (= X9 (- (* 15 S4) S5))
 (= X9 (- S4 (* 15 S5)))
 (= X9 (+ (* 15 S4) (* 15 S5)))
 (= X9 (- (* 15 S4) (* 15 S5)))
 (= X9 (+ (* 15 S4) (* 33 S5)))
 (= X9 (- (* 15 S4) (* 33 S5)))
 (= X9 (- (* 33 S4) (* 15 S5)))
 (= X9 (+ (* 15 S4) (* 95 S5)))
 (= X9 (- (* 15 S4) (* 95 S5)))
 (= X9 (- (* 95 S4) (* 15 S5)))
 (= X9 (+ (* 15 S4) (* 37 S5)))
 (= X9 (- (* 15 S4) (* 37 S5)))
 (= X9 (- (* 37 S4) (* 15 S5)))
 (= X9 (+ (* 15 S4) (* 293 S5)))
 (= X9 (- (* 15 S4) (* 293 S5)))
 (= X9 (- (* 293 S4) (* 15 S5)))
 (= X9 (+ (* 15 S4) (* 495 S5)))
 (= X9 (- (* 15 S4) (* 495 S5)))
 (= X9 (- (* 495 S4) (* 15 S5)))
 (= X9 (+ (* 15 S4) (* 953 S5)))
 (= X9 (- (* 15 S4) (* 953 S5)))
 (= X9 (- (* 953 S4) (* 15 S5)))
 (= X9 (+ (* 15 S4) (* X7 S5)))
 (= X9 (- (* 15 S4) (* X7 S5)))
 (= X9 (- (* X7 S4) (* 15 S5)))
 (= X9 (+ (* 15 S4) (* X8 S5)))
 (= X9 (- (* 15 S4) (* X8 S5)))
 (= X9 (- (* X8 S4) (* 15 S5)))
 (= X9 (+ (* 33 S4) S5))
 (= X9 (- (* 33 S4) S5))
 (= X9 (- S4 (* 33 S5)))
 (= X9 (+ (* 33 S4) (* 33 S5)))
 (= X9 (- (* 33 S4) (* 33 S5)))
 (= X9 (+ (* 33 S4) (* 95 S5)))
 (= X9 (- (* 33 S4) (* 95 S5)))
 (= X9 (- (* 95 S4) (* 33 S5)))
 (= X9 (+ (* 33 S4) (* 37 S5)))
 (= X9 (- (* 33 S4) (* 37 S5)))
 (= X9 (- (* 37 S4) (* 33 S5)))
 (= X9 (+ (* 33 S4) (* 293 S5)))
 (= X9 (- (* 33 S4) (* 293 S5)))
 (= X9 (- (* 293 S4) (* 33 S5)))
 (= X9 (+ (* 33 S4) (* 495 S5)))
 (= X9 (- (* 33 S4) (* 495 S5)))
 (= X9 (- (* 495 S4) (* 33 S5)))
 (= X9 (+ (* 33 S4) (* 953 S5)))
 (= X9 (- (* 33 S4) (* 953 S5)))
 (= X9 (- (* 953 S4) (* 33 S5)))
 (= X9 (+ (* 33 S4) (* X7 S5)))
 (= X9 (- (* 33 S4) (* X7 S5)))
 (= X9 (- (* X7 S4) (* 33 S5)))
 (= X9 (+ (* 33 S4) (* X8 S5)))
 (= X9 (- (* 33 S4) (* X8 S5)))
 (= X9 (- (* X8 S4) (* 33 S5)))
 (= X9 (+ (* 95 S4) S5))
 (= X9 (- (* 95 S4) S5))
 (= X9 (- S4 (* 95 S5)))
 (= X9 (+ (* 95 S4) (* 95 S5)))
 (= X9 (- (* 95 S4) (* 95 S5)))
 (= X9 (+ (* 95 S4) (* 37 S5)))
 (= X9 (- (* 95 S4) (* 37 S5)))
 (= X9 (- (* 37 S4) (* 95 S5)))
 (= X9 (+ (* 95 S4) (* 293 S5)))
 (= X9 (- (* 95 S4) (* 293 S5)))
 (= X9 (- (* 293 S4) (* 95 S5)))
 (= X9 (+ (* 95 S4) (* 495 S5)))
 (= X9 (- (* 95 S4) (* 495 S5)))
 (= X9 (- (* 495 S4) (* 95 S5)))
 (= X9 (+ (* 95 S4) (* 953 S5)))
 (= X9 (- (* 95 S4) (* 953 S5)))
 (= X9 (- (* 953 S4) (* 95 S5)))
 (= X9 (+ (* 95 S4) (* X7 S5)))
 (= X9 (- (* 95 S4) (* X7 S5)))
 (= X9 (- (* X7 S4) (* 95 S5)))
 (= X9 (+ (* 95 S4) (* X8 S5)))
 (= X9 (- (* 95 S4) (* X8 S5)))
 (= X9 (- (* X8 S4) (* 95 S5)))
 (= X9 (+ (* 37 S4) S5))
 (= X9 (- (* 37 S4) S5))
 (= X9 (- S4 (* 37 S5)))
 (= X9 (+ (* 37 S4) (* 37 S5)))
 (= X9 (- (* 37 S4) (* 37 S5)))
 (= X9 (+ (* 37 S4) (* 293 S5)))
 (= X9 (- (* 37 S4) (* 293 S5)))
 (= X9 (- (* 293 S4) (* 37 S5)))
 (= X9 (+ (* 37 S4) (* 495 S5)))
 (= X9 (- (* 37 S4) (* 495 S5)))
 (= X9 (- (* 495 S4) (* 37 S5)))
 (= X9 (+ (* 37 S4) (* 953 S5)))
 (= X9 (- (* 37 S4) (* 953 S5)))
 (= X9 (- (* 953 S4) (* 37 S5)))
 (= X9 (+ (* 37 S4) (* X7 S5)))
 (= X9 (- (* 37 S4) (* X7 S5)))
 (= X9 (- (* X7 S4) (* 37 S5)))
 (= X9 (+ (* 37 S4) (* X8 S5)))
 (= X9 (- (* 37 S4) (* X8 S5)))
 (= X9 (- (* X8 S4) (* 37 S5)))
 (= X9 (+ (* 293 S4) S5))
 (= X9 (- (* 293 S4) S5))
 (= X9 (- S4 (* 293 S5)))
 (= X9 (+ (* 293 S4) (* 293 S5)))
 (= X9 (- (* 293 S4) (* 293 S5)))
 (= X9 (+ (* 293 S4) (* 495 S5)))
 (= X9 (- (* 293 S4) (* 495 S5)))
 (= X9 (- (* 495 S4) (* 293 S5)))
 (= X9 (+ (* 293 S4) (* 953 S5)))
 (= X9 (- (* 293 S4) (* 953 S5)))
 (= X9 (- (* 953 S4) (* 293 S5)))
 (= X9 (+ (* 293 S4) (* X7 S5)))
 (= X9 (- (* 293 S4) (* X7 S5)))
 (= X9 (- (* X7 S4) (* 293 S5)))
 (= X9 (+ (* 293 S4) (* X8 S5)))
 (= X9 (- (* 293 S4) (* X8 S5)))
 (= X9 (- (* X8 S4) (* 293 S5)))
 (= X9 (+ (* 495 S4) S5))
 (= X9 (- (* 495 S4) S5))
 (= X9 (- S4 (* 495 S5)))
 (= X9 (+ (* 495 S4) (* 495 S5)))
 (= X9 (- (* 495 S4) (* 495 S5)))
 (= X9 (+ (* 495 S4) (* 953 S5)))
 (= X9 (- (* 495 S4) (* 953 S5)))
 (= X9 (- (* 953 S4) (* 495 S5)))
 (= X9 (+ (* 495 S4) (* X7 S5)))
 (= X9 (- (* 495 S4) (* X7 S5)))
 (= X9 (- (* X7 S4) (* 495 S5)))
 (= X9 (+ (* 495 S4) (* X8 S5)))
 (= X9 (- (* 495 S4) (* X8 S5)))
 (= X9 (- (* X8 S4) (* 495 S5)))
 (= X9 (+ (* 953 S4) S5))
 (= X9 (- (* 953 S4) S5))
 (= X9 (- S4 (* 953 S5)))
 (= X9 (+ (* 953 S4) (* 953 S5)))
 (= X9 (- (* 953 S4) (* 953 S5)))
 (= X9 (+ (* 953 S4) (* X7 S5)))
 (= X9 (- (* 953 S4) (* X7 S5)))
 (= X9 (- (* X7 S4) (* 953 S5)))
 (= X9 (+ (* 953 S4) (* X8 S5)))
 (= X9 (- (* 953 S4) (* X8 S5)))
 (= X9 (- (* X8 S4) (* 953 S5)))
 (= X9 (+ (* X7 S4) S5))
 (= X9 (- (* X7 S4) S5))
 (= X9 (- S4 (* X7 S5)))
 (= X9 (+ (* X7 S4) (* X7 S5)))
 (= X9 (- (* X7 S4) (* X7 S5)))
 (= X9 (+ (* X7 S4) (* X8 S5)))
 (= X9 (- (* X7 S4) (* X8 S5)))
 (= X9 (- (* X8 S4) (* X7 S5)))
 (= X9 (+ (* X8 S4) S5))
 (= X9 (- (* X8 S4) S5))
 (= X9 (- S4 (* X8 S5)))
 (= X9 (+ (* X8 S4) (* X8 S5)))
 (= X9 (- (* X8 S4) (* X8 S5)))
))
(assert (and (> X9 0) (< X9 2048) (power2 S4) (power2 S5)))
(assert (or
 (= X10 (+ (* 15 S6) S7))
 (= X10 (- (* 15 S6) S7))
 (= X10 (- S6 (* 15 S7)))
 (= X10 (+ (* 15 S6) (* 15 S7)))
 (= X10 (- (* 15 S6) (* 15 S7)))
 (= X10 (+ (* 15 S6) (* 33 S7)))
 (= X10 (- (* 15 S6) (* 33 S7)))
 (= X10 (- (* 33 S6) (* 15 S7)))
 (= X10 (+ (* 15 S6) (* 95 S7)))
 (= X10 (- (* 15 S6) (* 95 S7)))
 (= X10 (- (* 95 S6) (* 15 S7)))
 (= X10 (+ (* 15 S6) (* 37 S7)))
 (= X10 (- (* 15 S6) (* 37 S7)))
 (= X10 (- (* 37 S6) (* 15 S7)))
 (= X10 (+ (* 15 S6) (* 293 S7)))
 (= X10 (- (* 15 S6) (* 293 S7)))
 (= X10 (- (* 293 S6) (* 15 S7)))
 (= X10 (+ (* 15 S6) (* 495 S7)))
 (= X10 (- (* 15 S6) (* 495 S7)))
 (= X10 (- (* 495 S6) (* 15 S7)))
 (= X10 (+ (* 15 S6) (* 953 S7)))
 (= X10 (- (* 15 S6) (* 953 S7)))
 (= X10 (- (* 953 S6) (* 15 S7)))
 (= X10 (+ (* 15 S6) (* X7 S7)))
 (= X10 (- (* 15 S6) (* X7 S7)))
 (= X10 (- (* X7 S6) (* 15 S7)))
 (= X10 (+ (* 15 S6) (* X8 S7)))
 (= X10 (- (* 15 S6) (* X8 S7)))
 (= X10 (- (* X8 S6) (* 15 S7)))
 (= X10 (+ (* 15 S6) (* X9 S7)))
 (= X10 (- (* 15 S6) (* X9 S7)))
 (= X10 (- (* X9 S6) (* 15 S7)))
 (= X10 (+ (* 33 S6) S7))
 (= X10 (- (* 33 S6) S7))
 (= X10 (- S6 (* 33 S7)))
 (= X10 (+ (* 33 S6) (* 33 S7)))
 (= X10 (- (* 33 S6) (* 33 S7)))
 (= X10 (+ (* 33 S6) (* 95 S7)))
 (= X10 (- (* 33 S6) (* 95 S7)))
 (= X10 (- (* 95 S6) (* 33 S7)))
 (= X10 (+ (* 33 S6) (* 37 S7)))
 (= X10 (- (* 33 S6) (* 37 S7)))
 (= X10 (- (* 37 S6) (* 33 S7)))
 (= X10 (+ (* 33 S6) (* 293 S7)))
 (= X10 (- (* 33 S6) (* 293 S7)))
 (= X10 (- (* 293 S6) (* 33 S7)))
 (= X10 (+ (* 33 S6) (* 495 S7)))
 (= X10 (- (* 33 S6) (* 495 S7)))
 (= X10 (- (* 495 S6) (* 33 S7)))
 (= X10 (+ (* 33 S6) (* 953 S7)))
 (= X10 (- (* 33 S6) (* 953 S7)))
 (= X10 (- (* 953 S6) (* 33 S7)))
 (= X10 (+ (* 33 S6) (* X7 S7)))
 (= X10 (- (* 33 S6) (* X7 S7)))
 (= X10 (- (* X7 S6) (* 33 S7)))
 (= X10 (+ (* 33 S6) (* X8 S7)))
 (= X10 (- (* 33 S6) (* X8 S7)))
 (= X10 (- (* X8 S6) (* 33 S7)))
 (= X10 (+ (* 33 S6) (* X9 S7)))
 (= X10 (- (* 33 S6) (* X9 S7)))
 (= X10 (- (* X9 S6) (* 33 S7)))
 (= X10 (+ (* 95 S6) S7))
 (= X10 (- (* 95 S6) S7))
 (= X10 (- S6 (* 95 S7)))
 (= X10 (+ (* 95 S6) (* 95 S7)))
 (= X10 (- (* 95 S6) (* 95 S7)))
 (= X10 (+ (* 95 S6) (* 37 S7)))
 (= X10 (- (* 95 S6) (* 37 S7)))
 (= X10 (- (* 37 S6) (* 95 S7)))
 (= X10 (+ (* 95 S6) (* 293 S7)))
 (= X10 (- (* 95 S6) (* 293 S7)))
 (= X10 (- (* 293 S6) (* 95 S7)))
 (= X10 (+ (* 95 S6) (* 495 S7)))
 (= X10 (- (* 95 S6) (* 495 S7)))
 (= X10 (- (* 495 S6) (* 95 S7)))
 (= X10 (+ (* 95 S6) (* 953 S7)))
 (= X10 (- (* 95 S6) (* 953 S7)))
 (= X10 (- (* 953 S6) (* 95 S7)))
 (= X10 (+ (* 95 S6) (* X7 S7)))
 (= X10 (- (* 95 S6) (* X7 S7)))
 (= X10 (- (* X7 S6) (* 95 S7)))
 (= X10 (+ (* 95 S6) (* X8 S7)))
 (= X10 (- (* 95 S6) (* X8 S7)))
 (= X10 (- (* X8 S6) (* 95 S7)))
 (= X10 (+ (* 95 S6) (* X9 S7)))
 (= X10 (- (* 95 S6) (* X9 S7)))
 (= X10 (- (* X9 S6) (* 95 S7)))
 (= X10 (+ (* 37 S6) S7))
 (= X10 (- (* 37 S6) S7))
 (= X10 (- S6 (* 37 S7)))
 (= X10 (+ (* 37 S6) (* 37 S7)))
 (= X10 (- (* 37 S6) (* 37 S7)))
 (= X10 (+ (* 37 S6) (* 293 S7)))
 (= X10 (- (* 37 S6) (* 293 S7)))
 (= X10 (- (* 293 S6) (* 37 S7)))
 (= X10 (+ (* 37 S6) (* 495 S7)))
 (= X10 (- (* 37 S6) (* 495 S7)))
 (= X10 (- (* 495 S6) (* 37 S7)))
 (= X10 (+ (* 37 S6) (* 953 S7)))
 (= X10 (- (* 37 S6) (* 953 S7)))
 (= X10 (- (* 953 S6) (* 37 S7)))
 (= X10 (+ (* 37 S6) (* X7 S7)))
 (= X10 (- (* 37 S6) (* X7 S7)))
 (= X10 (- (* X7 S6) (* 37 S7)))
 (= X10 (+ (* 37 S6) (* X8 S7)))
 (= X10 (- (* 37 S6) (* X8 S7)))
 (= X10 (- (* X8 S6) (* 37 S7)))
 (= X10 (+ (* 37 S6) (* X9 S7)))
 (= X10 (- (* 37 S6) (* X9 S7)))
 (= X10 (- (* X9 S6) (* 37 S7)))
 (= X10 (+ (* 293 S6) S7))
 (= X10 (- (* 293 S6) S7))
 (= X10 (- S6 (* 293 S7)))
 (= X10 (+ (* 293 S6) (* 293 S7)))
 (= X10 (- (* 293 S6) (* 293 S7)))
 (= X10 (+ (* 293 S6) (* 495 S7)))
 (= X10 (- (* 293 S6) (* 495 S7)))
 (= X10 (- (* 495 S6) (* 293 S7)))
 (= X10 (+ (* 293 S6) (* 953 S7)))
 (= X10 (- (* 293 S6) (* 953 S7)))
 (= X10 (- (* 953 S6) (* 293 S7)))
 (= X10 (+ (* 293 S6) (* X7 S7)))
 (= X10 (- (* 293 S6) (* X7 S7)))
 (= X10 (- (* X7 S6) (* 293 S7)))
 (= X10 (+ (* 293 S6) (* X8 S7)))
 (= X10 (- (* 293 S6) (* X8 S7)))
 (= X10 (- (* X8 S6) (* 293 S7)))
 (= X10 (+ (* 293 S6) (* X9 S7)))
 (= X10 (- (* 293 S6) (* X9 S7)))
 (= X10 (- (* X9 S6) (* 293 S7)))
 (= X10 (+ (* 495 S6) S7))
 (= X10 (- (* 495 S6) S7))
 (= X10 (- S6 (* 495 S7)))
 (= X10 (+ (* 495 S6) (* 495 S7)))
 (= X10 (- (* 495 S6) (* 495 S7)))
 (= X10 (+ (* 495 S6) (* 953 S7)))
 (= X10 (- (* 495 S6) (* 953 S7)))
 (= X10 (- (* 953 S6) (* 495 S7)))
 (= X10 (+ (* 495 S6) (* X7 S7)))
 (= X10 (- (* 495 S6) (* X7 S7)))
 (= X10 (- (* X7 S6) (* 495 S7)))
 (= X10 (+ (* 495 S6) (* X8 S7)))
 (= X10 (- (* 495 S6) (* X8 S7)))
 (= X10 (- (* X8 S6) (* 495 S7)))
 (= X10 (+ (* 495 S6) (* X9 S7)))
 (= X10 (- (* 495 S6) (* X9 S7)))
 (= X10 (- (* X9 S6) (* 495 S7)))
 (= X10 (+ (* 953 S6) S7))
 (= X10 (- (* 953 S6) S7))
 (= X10 (- S6 (* 953 S7)))
 (= X10 (+ (* 953 S6) (* 953 S7)))
 (= X10 (- (* 953 S6) (* 953 S7)))
 (= X10 (+ (* 953 S6) (* X7 S7)))
 (= X10 (- (* 953 S6) (* X7 S7)))
 (= X10 (- (* X7 S6) (* 953 S7)))
 (= X10 (+ (* 953 S6) (* X8 S7)))
 (= X10 (- (* 953 S6) (* X8 S7)))
 (= X10 (- (* X8 S6) (* 953 S7)))
 (= X10 (+ (* 953 S6) (* X9 S7)))
 (= X10 (- (* 953 S6) (* X9 S7)))
 (= X10 (- (* X9 S6) (* 953 S7)))
 (= X10 (+ (* X7 S6) S7))
 (= X10 (- (* X7 S6) S7))
 (= X10 (- S6 (* X7 S7)))
 (= X10 (+ (* X7 S6) (* X7 S7)))
 (= X10 (- (* X7 S6) (* X7 S7)))
 (= X10 (+ (* X7 S6) (* X8 S7)))
 (= X10 (- (* X7 S6) (* X8 S7)))
 (= X10 (- (* X8 S6) (* X7 S7)))
 (= X10 (+ (* X7 S6) (* X9 S7)))
 (= X10 (- (* X7 S6) (* X9 S7)))
 (= X10 (- (* X9 S6) (* X7 S7)))
 (= X10 (+ (* X8 S6) S7))
 (= X10 (- (* X8 S6) S7))
 (= X10 (- S6 (* X8 S7)))
 (= X10 (+ (* X8 S6) (* X8 S7)))
 (= X10 (- (* X8 S6) (* X8 S7)))
 (= X10 (+ (* X8 S6) (* X9 S7)))
 (= X10 (- (* X8 S6) (* X9 S7)))
 (= X10 (- (* X9 S6) (* X8 S7)))
 (= X10 (+ (* X9 S6) S7))
 (= X10 (- (* X9 S6) S7))
 (= X10 (- S6 (* X9 S7)))
 (= X10 (+ (* X9 S6) (* X9 S7)))
 (= X10 (- (* X9 S6) (* X9 S7)))
))
(assert (and (> X10 0) (< X10 2048) (power2 S6) (power2 S7)))
(assert (or
 (= X8 867)
 (= X9 867)
 (= X10 867)
))
(assert (or
 (= X8 799)
 (= X9 799)
 (= X10 799)
))
(assert (or
 (= X8 171)
 (= X9 171)
 (= X10 171)
))
(check-sat)
(exit)
